000 000 000 000 -99 -99 -99 -99 -99 -99 -99 -99 000 000 000 000 000 000 000 000 000 000 000 000 002 002 001 001 001 001 001
000 000 000 000 000 -99 000 000 -99 -99 -99 -99 000 000 000 001 001 000 000 000 000 000 000 000 001 002 001 001 001 002 001
000 000 000 000 000 -99 000 000 000 -99 -99 -99 000 000 000 002 003 001 000 000 000 000 000 001 001 002 003 003 002 002 002
000 000 000 000 000 000 000 000 000 000 -99 -99 000 000 000 003 004 000 000 000 000 001 000 001 003 004 004 003 003 002 001
000 000 000 000 000 000 000 000 000 000 -99 -99 000 000 000 003 003 001 000 000 001 001 000 001 002 003 003 004 005 003 001
000 000 000 000 000 000 000 000 000 000 000 000 000 001 001 003 002 001 000 000 000 001 001 001 003 004 003 007 005 003 002
000 000 000 000 000 000 000 000 000 000 -99 000 000 000 001 001 001 000 000 000 000 001 001 001 002 002 004 006 007 004 004
000 000 000 000 000 000 000 000 000 000 000 000 000 001 001 000 000 000 000 000 000 000 000 001 002 002 003 005 009 005 005
000 000 000 000 000 000 000 000 000 000 000 000 000 000 000 000 000 000 000 000 000 001 001 001 002 002 003 005 010 006 005
000 000 000 000 000 000 000 000 000 000 000 000 000 000 000 000 000 000 000 000 000 001 001 001 001 003 004 005 005 008 007
000 000 000 000 000 000 000 000 000 000 000 000 000 000 000 000 000 000 000 000 000 000 001 002 002 004 005 007 007 007 008
000 001 000 000 000 000 000 000 000 001 000 000 000 000 000 000 000 000 000 000 000 000 001 002 002 004 008 008 009 009 010
001 003 000 000 002 001 001 002 001 002 000 000 000 000 000 000 000 000 000 000 000 000 001 001 001 003 007 009 020 021 008
002 006 004 001 005 004 003 003 004 009 002 000 000 000 000 000 000 000 000 000 000 000 001 001 001 004 003 010 011 012 005
001 005 017 011 011 011 011 010 016 034 004 001 001 000 000 000 000 000 000 000 000 000 001 000 000 002 003 008 009 021 007
001 005 018 019 023 022 019 029 017 040 009 006 002 000 000 000 000 001 000 000 000 000 000 000 000 001 002 003 004 009 010
001 002 012 021 031 061 045 041 019 030 010 007 003 001 001 000 001 004 011 003 001 000 001 000 000 000 001 001 002 005 006
001 002 004 016 035 055 072 075 050 017 023 008 007 003 002 003 003 006 028 014 004 001 002 001 001 000 001 001 002 003 004
001 003 004 024 047 058 056 044 040 021 029 015 010 009 008 013 012 016 033 017 007 002 002 001 002 001 001 001 002 003 004
001 005 008 029 023 039 033 056 045 060 073 080 055 051 035 033 033 029 016 020 009 006 004 003 008 002 001 001 002 002 003
003 007 013 014 015 026 029 054 040 060 056 073 075 046 050 035 031 029 010 015 011 010 006 005 006 002 001 001 001 002 003
004 009 009 010 016 023 035 044 037 065 052 055 061 047 035 021 017 010 013 017 014 008 006 007 010 002 -99 -99 -99 004 006
005 008 005 010 018 020 029 029 031 075 048 048 051 051 021 008 007 009 013 018 021 018 007 006 005 001 -99 -99 -99 003 007
003 004 007 006 010 010 014 020 023 033 029 035 040 039 011 007 006 007 009 012 025 048 017 007 004 001 -99 -99 -99 003 007
002 003 005 005 006 007 007 018 016 024 031 029 019 018 012 011 008 013 008 004 011 047 040 017 009 006 -99 009 -99 004 006
000 001 001 001 004 004 005 007 013 012 014 018 008 004 004 007 009 010 007 001 004 015 031 028 015 010 -99 009 -99 003 003
000 000 000 000 001 002 003 006 008 009 011 006 003 000 000 003 017 009 003 000 001 002 010 033 023 016 015 007 003 001 002
000 000 000 000 000 001 002 006 006 007 002 001 000 000 000 005 010 004 000 000 000 000 005 009 008 007 016 007 002 001 001
000 000 -99 -99 000 000 000 003 003 005 000 000 000 000 000 002 005 005 000 000 000 000 001 002 004 004 013 004 002 001 000
000 000 -99 -99 000 000 000 000 001 002 000 000 -99 000 000 000 003 003 000 -99 000 000 002 000 001 001 003 003 002 000 000
000 000 000 000 000 000 000 000 000 000 000 000 -99 000 000 000 001 000 000 000 -99 000 000 000 000 000 000 001 001 001 000
000 000 000 000 000 000 000 000 000 -99 -99 -99 -99 -99 000 000 000 000 000 -99 000 000 000 000 000 000 000 000 000 000 000
-99 000 000 000 000 000 000 000 000 -99 -99 -99 -99 000 000 000 000 000 000 -99 -99 000 000 000 000 000 000 000 000 000 000
-99 -99 -99 -99 000 000 000 000 -99 -99 -99 -99 000 000 000 000 000 000 000 -99 000 000 000 000 000 000 000 000 000 000 000
-99 -99 -99 000 000 000 000 -99 -99 -99 -99 -99 000 000 000 000 000 000 -99 -99 000 000 000 000 000 000 000 000 000 000 000
-99 -99 -99 -99 000 -99 -99 -99 000 -99 -99 -99 -99 000 000 000 000 000 000 000 000 000 000 000 000 000 000 000 000 -99 -99
000 000 -99 000 -99 -99 -99 000 000 -99 -99 -99 -99 -99 000 000 000 000 000 -99 000 000 000 000 000 000 000 000 -99 -99 -99
000 000 -99 000 000 -99 -99 000 -99 -99 -99 -99 -99 -99 -99 000 000 000 -99 -99 000 000 000 000 000 000 000 -99 -99 -99 -99
000 000 -99 -99 -99 -99 000 000 -99 -99 -99 -99 -99 -99 -99 -99 000 000 -99 -99 000 000 000 000 000 000 -99 -99 -99 -99 -99
-99 -99 -99 -99 -99 -99 -99 000 -99 -99 -99 -99 -99 -99 -99 -99 000 -99 -99 -99 -99 -99 000 000 -99 000 -99 -99 -99 -99 -99
000 -99 -99 -99 -99 -99 -99 -99 -99 -99 -99 -99 -99 -99 -99 -99 -99 -99 -99 -99 000 -99 -99 -99 -99 000 -99 -99 -99 -99 -99
-99 -99 -99 -99 -99 -99 -99 -99 -99 -99 -99 -99 -99 -99 -99 -99 -99 -99 -99 000 000 -99 -99 -99 000 -99 -99 -99 -99 -99 -99
000 -99 -99 -99 -99 -99 -99 -99 -99 -99 -99 -99 000 -99 -99 -99 -99 -99 -99 000 -99 -99 -99 -99 -99 -99 -99 -99 -99 -99 -99
-99 -99 -99 -99 -99 -99 000 000 -99 -99 -99 000 000 -99 000 000 -99 -99 000 000 -99 -99 -99 -99 -99 -99 -99 -99 -99 -99 -99
-99 -99 -99 -99 -99 -99 000 000 -99 -99 -99 -99 000 -99 000 000 -99 -99 000 000 -99 -99 -99 -99 000 -99 -99 -99 -99 -99 -99
-99 -99 -99 -99 -99 -99 -99 -99 -99 -99 -99 -99 000 -99 000 -99 -99 -99 -99 -99 -99 -99 -99 -99 000 -99 -99 -99 -99 -99 -99
-99 -99 -99 -99 -99 -99 -99 -99 -99 -99 -99 -99 -99 -99 000 -99 -99 -99 -99 -99 -99 -99 -99 -99 -99 -99 -99 -99 -99 -99 -99
-99 -99 -99 -99 -99 -99 -99 -99 -99 -99 -99 -99 -99 -99 -99 -99 -99 -99 -99 -99 -99 -99 -99 000 -99 -99 -99 -99 -99 -99 -99
-99 -99 -99 -99 -99 -99 -99 -99 -99 -99 -99 -99 -99 -99 -99 -99 -99 -99 -99 -99 -99 -99 -99 -99 -99 -99 -99 -99 -99 -99 -99
-99 -99 -99 -99 -99 -99 -99 -99 -99 -99 -99 -99 -99 -99 -99 -99 -99 -99 -99 -99 -99 -99 -99 -99 -99 -99 -99 -99 -99 -99 -99
-99 -99 -99 -99 -99 -99 -99 -99 -99 -99 -99 -99 -99 -99 -99 -99 -99 -99 -99 -99 -99 -99 -99 -99 -99 -99 -99 -99 -99 -99 -99
-99 -99 -99 -99 -99 -99 -99 -99 -99 -99 -99 -99 -99 -99 -99 -99 -99 -99 -99 -99 -99 -99 -99 -99 -99 -99 -99 -99 -99 000 -99
-99 -99 -99 -99 -99 -99 -99 -99 -99 -99 -99 -99 -99 -99 -99 -99 -99 -99 -99 -99 -99 -99 -99 -99 -99 -99 -99 -99 -99 000 000
-99 -99 -99 -99 -99 -99 -99 -99 -99 -99 -99 -99 -99 -99 -99 -99 -99 -99 -99 -99 -99 -99 -99 -99 -99 -99 -99 -99 000 000 000
-99 -99 -99 -99 -99 -99 -99 -99 -99 -99 -99 -99 -99 -99 -99 -99 -99 -99 -99 -99 -99 -99 -99 -99 -99 -99 -99 -99 000 000 000
